p cnf 12 30
-12 -11 6 0
-12 10 -3 0
-12 10 -1 0
12 9 3 0
-12 3 2 0
12 3 -2 0
11 10 -8 0
-11 8 4 0
11 8 1 0
11 -7 -6 0
-11 6 2 0
11 -3 -2 0
10 -9 6 0
-10 9 2 0
10 8 6 0
-10 -6 -1 0
-9 -7 2 0
9 -4 3 0
-9 4 2 0
8 -7 6 0
8 -7 5 0
-8 -7 5 0
-8 5 -4 0
7 -5 -3 0
-7 4 2 0
-7 4 -2 0
7 3 -1 0
6 -5 -4 0
5 -4 3 0
-5 4 1 0
